(declare-fun a () (_ FloatingPoint 11 53))
(declare-fun b () (_ FloatingPoint 11 53))
(define-fun a_b_rne () (_ FloatingPoint 11 53) (fp.div RNE a b))
(define-fun a_b_rtp () (_ FloatingPoint 11 53) (fp.div RTP a b))
(assert (not (fp.isNaN a)))
(assert (not (fp.isNaN b)))
(assert (not (fp.eq a_b_rne a_b_rtp)))
(assert (not (fp.isNaN a_b_rne)))
(assert (not (fp.isNaN a_b_rtp)))
(check-sat)
